c Created with the Wolfram Language : www.wolfram.com
c 
p edge 70 351
e 2 4
e 2 9
e 7 9
e 8 9
e 4 10
e 6 11
e 3 12
e 10 12
e 2 13
e 10 13
e 1 14
e 4 14
e 8 14
e 10 14
e 11 14
e 12 14
e 1 15
e 3 15
e 7 15
e 11 15
e 6 17
e 8 17
e 12 17
e 4 18
e 6 18
e 8 18
e 14 18
e 1 19
e 10 19
e 17 19
e 18 19
e 6 20
e 9 20
e 10 20
e 19 20
e 6 21
e 10 21
e 9 22
e 1 23
e 8 23
e 12 23
e 17 23
e 2 24
e 6 24
e 12 24
e 14 24
e 17 24
e 19 24
e 17 25
e 19 25
e 3 26
e 6 26
e 15 26
e 21 26
e 22 26
e 24 26
e 3 27
e 9 27
e 21 27
e 25 27
e 7 28
e 10 28
e 16 28
e 22 28
e 25 28
e 12 29
e 14 29
e 22 29
e 23 29
e 8 30
e 11 30
e 14 30
e 16 30
e 18 30
e 20 30
e 23 30
e 1 31
e 6 31
e 18 31
e 27 31
e 16 32
e 18 32
e 30 32
e 5 33
e 10 33
e 12 33
e 19 33
e 23 33
e 28 33
e 31 33
e 1 34
e 4 34
e 18 34
e 24 34
e 26 34
e 2 35
e 16 35
e 18 35
e 31 35
e 3 36
e 13 36
e 15 36
e 16 36
e 21 36
e 22 36
e 34 36
e 2 37
e 9 37
e 24 37
e 25 37
e 27 37
e 1 38
e 2 38
e 10 38
e 12 38
e 14 38
e 36 38
e 10 39
e 26 39
e 29 39
e 32 39
e 5 40
e 18 40
e 20 40
e 31 40
e 36 40
e 1 41
e 6 41
e 18 41
e 19 41
e 21 41
e 28 41
e 7 42
e 12 42
e 14 42
e 29 42
e 31 42
e 35 42
e 37 42
e 12 43
e 14 43
e 24 43
e 30 43
e 35 43
e 40 43
e 11 44
e 34 44
e 42 44
e 13 45
e 15 45
e 16 45
e 22 45
e 23 45
e 28 45
e 29 45
e 31 45
e 32 45
e 41 45
e 43 45
e 44 45
e 3 46
e 6 46
e 17 46
e 35 46
e 5 47
e 7 47
e 16 47
e 17 47
e 25 47
e 26 47
e 27 47
e 33 47
e 42 47
e 45 47
e 8 48
e 20 48
e 21 48
e 25 48
e 37 48
e 38 48
e 44 48
e 47 48
e 1 49
e 10 49
e 14 49
e 27 49
e 34 49
e 40 49
e 43 49
e 1 50
e 5 50
e 14 50
e 29 50
e 32 50
e 37 50
e 42 50
e 43 50
e 8 51
e 9 51
e 14 51
e 41 51
e 9 52
e 18 52
e 26 52
e 44 52
e 12 53
e 18 53
e 23 53
e 27 53
e 35 53
e 47 53
e 51 53
e 5 54
e 9 54
e 12 54
e 23 54
e 33 54
e 34 54
e 37 54
e 38 54
e 1 55
e 6 55
e 8 55
e 16 55
e 19 55
e 23 55
e 28 55
e 34 55
e 53 55
e 1 56
e 9 56
e 16 56
e 19 56
e 24 56
e 41 56
e 10 57
e 21 57
e 23 57
e 36 57
e 41 57
e 43 57
e 3 58
e 5 58
e 14 58
e 25 58
e 27 58
e 30 58
e 37 58
e 39 58
e 40 58
e 42 58
e 50 58
e 51 58
e 4 59
e 8 59
e 36 59
e 38 59
e 43 59
e 50 59
e 52 59
e 1 60
e 4 60
e 15 60
e 21 60
e 28 60
e 29 60
e 30 60
e 44 60
e 54 60
e 4 61
e 15 61
e 23 61
e 42 61
e 46 61
e 56 61
e 60 61
e 7 62
e 10 62
e 15 62
e 41 62
e 42 62
e 46 62
e 49 62
e 5 63
e 10 63
e 19 63
e 23 63
e 25 63
e 30 63
e 39 63
e 45 63
e 46 63
e 56 63
e 9 64
e 15 64
e 16 64
e 18 64
e 19 64
e 28 64
e 49 64
e 56 64
e 62 64
e 13 65
e 32 65
e 44 65
e 45 65
e 47 65
e 50 65
e 60 65
e 63 65
e 1 66
e 25 66
e 62 66
e 63 66
e 1 67
e 9 67
e 10 67
e 26 67
e 28 67
e 31 67
e 36 67
e 48 67
e 56 67
e 57 67
e 59 67
e 1 68
e 14 68
e 15 68
e 21 68
e 23 68
e 40 68
e 43 68
e 45 68
e 5 69
e 16 69
e 33 69
e 37 69
e 39 69
e 45 69
e 49 69
e 51 69
e 61 69
e 66 69
e 21 70
e 22 70
e 29 70
e 42 70
e 46 70
e 55 70
e 57 70
e 69 70
